Model status
Unbounded

# Primal solution values
Feasible
Objective -5313.14568264278
# Columns 142
x00000000_figure_width 226.7716535433071
x00000001_figure_height 113.3858267716535
x00000012_title_area_canvas_height 12.9840002059937
x00000020_top_decorations_area_canvas_height 7
x00000029_right_decorations_area_canvas_width 0
x00000036_bottom_decorations_area_canvas_height 28.1310000419617
x00000045_left_decorations_area_canvas_width 26.9580001831055
x00000050_x_axis_size 181.1404250137449
x00000051_x_axis_margin_start 7.0866141732284
x00000052_x_axis_margin_end 7.0866141732283
x00000055_y_axis_size 46.5975981772415
x00000056_y_axis_margin_start 7.0866141732283
x00000057_y_axis_margin_end 7.0866141732283
x00000060_x2_axis_size 181.1404250137449
x00000061_x2_axis_margin_start 7.0866141732283
x00000062_x2_axis_margin_end 7.0866141732283
x00000065_y2_axis_size 46.5975981772415
x00000066_y2_axis_margin_start 7.0866141732283
x00000067_y2_axis_margin_end 7.0866141732283
x00000088_left_axis_canvas_canvas_width 26.9580001831055
x00000089_labels_left_bound 25.2080001831055
x00000092_top_axis_canvas_canvas_height 7
x00000094_tick_label_baseline 15.2340002059937
x00000095_tick_label_bottom 15.2340002059937
x00000099_right_axis_canvas_canvas_width 0
x00000100_labels_right_bound 228.5216535433071
x00000103_bottom_axis_canvas_canvas_height 28.1310000419617
x00000105_tick_label_baseline 96.3858267716535
x00000106_tick_label_bottom 96.3858267716535
x00000002_plot_bounds_top 2.25
x00000007_plot_area_canvas_y 2.25
x00000004_plot_bounds_left 2.25
x00000006_plot_area_canvas_x 2.25
x00000015_data_area_canvas_y 22.2340002059937
x00000016_data_area_canvas_height 60.7708265236982
x00000043_left_decorations_area_canvas_y 22.2340002059937
x00000044_left_decorations_area_canvas_height 60.7708265236982
x00000027_right_decorations_area_canvas_y 22.2340002059937
x00000097_right_axis_canvas_canvas_y 22.2340002059937
x00000026_right_decorations_area_canvas_x 224.5216535433071
x00000068_y2_axis_x 224.5216535433071
x00000069_y2_axis_y 22.2340002059937
x00000028_right_decorations_area_canvas_height 60.7708265236982
x00000096_right_axis_canvas_canvas_x 224.5216535433071
x00000034_bottom_decorations_area_canvas_x 29.2080001831055
x00000101_bottom_axis_canvas_canvas_x 29.2080001831055
x00000035_bottom_decorations_area_canvas_y 83.0048267296919
x00000102_bottom_axis_canvas_canvas_y 83.0048267296919
x00000037_bottom_decorations_area_canvas_width 195.3136533602016
x00000104_bottom_axis_canvas_canvas_width 195.3136533602016
x00000053_x_axis_x 29.2080001831054
x00000054_x_axis_y 83.0048267296919
x00000107_text_x 53.97545698833
x00000110_text_width 10.16100025177
x00000042_left_decorations_area_canvas_x 2.25
x00000108_text_y 96.3858267716535
x00000109_text_height 6.3810000419617
x00000039_bottom_left_decorations_area_canvas_y 83.0048267296919
x00000111_text_depth 0
x00000112_text_x 79.3795972940222
x00000115_text_width 11.25
x00000113_text_y 96.3858267716535
x00000114_text_height 6.3810000419617
x00000116_text_depth 0
x00000117_text_x 105.3327373860913
x00000120_text_width 11.2410001754761
x00000031_bottom_right_decorations_area_canvas_y 83.0048267296919
x00000118_text_y 96.3858267716535
x00000119_text_height 6.3810000419617
x00000121_text_depth 0
x00000122_text_x 131.1328776002307
x00000125_text_width 11.5380001068115
x00000123_text_y 96.3858267716535
x00000124_text_height 6.3810000419617
x00000126_text_depth 0
x00000127_text_x 157.2210179211816
x00000130_text_width 11.2589998245239
x00000040_bottom_left_decorations_area_canvas_height 28.1310000419617
x00000128_text_y 96.3858267716535
x00000129_text_height 6.3810000419617
x00000131_text_depth 0
x00000132_text_x 183.070658123877
x00000135_text_width 11.4569997787476
x00000133_text_y 96.3858267716535
x00000134_text_height 6.3810000419617
x00000032_bottom_right_decorations_area_canvas_height 28.1310000419617
x00000136_text_depth 0
x00000137_text_x 209.073298204502
x00000140_text_width 11.3489999771118
x00000138_text_y 96.3858267716535
x00000139_text_height 6.3810000419617
x00000141_text_depth 0
x00000075_text_x 124.7363268784651
x00000078_text_width 4.2569999694824
x00000076_text_y 111.1358267716535
x00000077_text_height 6.75
x00000010_title_area_canvas_x 2.25
x00000046_top_left_decorations_area_canvas_x 2.25
x00000079_text_depth 0
x00000073_plot_title_text_width 111.3840026855469
x00000072_plot_title_text_height 6.9840002059937
x00000083_text_width 14.9580001831055
x00000082_text_height 6.9749999046326
x00000038_bottom_left_decorations_area_canvas_x 2.25
x00000049_top_left_decorations_area_canvas_width 26.9580001831055
x00000005_plot_bounds_right 224.5216535433071
x00000009_plot_area_canvas_width 222.2716535433071
x00000041_bottom_left_decorations_area_canvas_width 26.9580001831055
x00000014_data_area_canvas_x 29.2080001831055
x00000018_top_decorations_area_canvas_x 29.2080001831055
x00000017_data_area_canvas_width 195.3136533602016
x00000021_top_decorations_area_canvas_width 195.3136533602016
x00000022_top_right_decorations_area_canvas_x 224.5216535433071
x00000030_bottom_right_decorations_area_canvas_x 224.5216535433071
x00000025_top_right_decorations_area_canvas_width 0
x00000033_bottom_right_decorations_area_canvas_width 0
x00000003_plot_bounds_bottom 111.1358267716535
x00000008_plot_area_canvas_height 108.8858267716535
x00000019_top_decorations_area_canvas_y 15.2340002059937
x00000047_top_left_decorations_area_canvas_y 15.2340002059937
x00000011_title_area_canvas_y 2.25
x00000048_top_left_decorations_area_canvas_height 7
x00000023_top_right_decorations_area_canvas_y 15.2340002059937
x00000024_top_right_decorations_area_canvas_height 7
x00000070_plot_title_text_x 2.25
x00000071_plot_title_text_y 9.2340002059937
x00000074_plot_title_text_depth 0
x00000085_left_axis_canvas_canvas_x 2.25
x00000086_left_axis_canvas_canvas_y 22.2340002059937
x00000087_left_axis_canvas_canvas_height 60.7708265236982
x00000058_y_axis_x 29.2080001831055
x00000059_y_axis_y 22.2340002059937
x00000080_text_x 2.25
x00000081_text_y 56.106913420159
x00000084_text_depth 0
x00000093_top_axis_canvas_canvas_width 195.3136533602016
x00000090_top_axis_canvas_canvas_x 29.2080001831055
x00000091_top_axis_canvas_canvas_y 15.2340002059937
x00000063_x2_axis_x 29.2080001831055
x00000064_x2_axis_y 22.2340002059937
x00000098_right_axis_canvas_canvas_height 60.7708265236982
x00000013_title_area_canvas_width 0
# Rows 184
c0 0
c1 0
c10 0
c100 0
c101 0
c102 0
c103 0
c104 4
c105 0
c106 0
c107 0
c108 0
c109 0
c11 0
c110 0
c111 0
c112 0
c113 13.3810000419617
c114 13.3810000419617
c115 0
c116 -160.385196303207
c117 51.72545698833
c118 0
c119 7
c12 0
c120 0
c121 0
c122 -133.8920562492849
c123 77.1295972940222
c124 0
c125 7
c126 0
c127 0
c128 -107.9479159817397
c129 103.0827373860913
c13 0
c130 0
c131 7
c132 0
c133 0
c134 -81.8507758362649
c135 128.8828776002307
c136 0
c137 7
c138 0
c139 0
c14 0
c140 -56.0416357976015
c141 154.9710179211816
c142 0
c143 7
c144 0
c145 0
c146 -29.9939956406826
c147 180.820658123877
c148 0
c149 7
c15 0
c150 0
c151 0
c152 -4.0993553616933
c153 206.823298204502
c154 0
c155 7
c156 0
c157 -14.75
c158 0
c159 8
c16 0
c160 21.3810000419617
c161 0
c162 0
c163 0
c164 111.3840026855469
c165 6.9840002059937
c166 4.2569999694824
c167 6.75
c168 14.9580001831055
c169 6.9749999046326
c17 0
c170 10.16100025177
c171 6.3810000419617
c172 11.25
c173 6.3810000419617
c174 11.2410001754761
c175 6.3810000419617
c176 11.5380001068115
c177 6.3810000419617
c178 11.2589998245239
c179 6.3810000419617
c18 0
c180 11.4569997787476
c181 6.3810000419617
c182 11.3489999771118
c183 6.3810000419617
c19 0
c2 0
c20 0
c21 0
c22 0
c23 0
c24 0
c25 0
c26 0
c27 0
c28 0
c29 0
c3 0
c30 0
c31 0
c32 0
c33 0
c34 0
c35 0
c36 0
c37 0
c38 0
c39 0
c4 0
c40 0
c41 0
c42 0
c43 0
c44 0
c45 0
c46 0
c47 0
c48 0
c49 0
c5 0
c50 0
c51 0
c52 0
c53 0
c54 0
c55 0
c56 0
c57 0
c58 7.0866141732283
c59 7.0866141732283
c6 0
c60 7.0866141732283
c61 7.0866141732283
c62 7.0866141732283
c63 7.0866141732283
c64 7.0866141732283
c65 7.0866141732283
c66 2.25
c67 -2.25
c68 2.25
c69 -2.25
c7 0
c70 0
c71 -6
c72 0
c73 -6
c74 0
c75 0
c76 0
c77 0
c78 0
c79 0
c8 0
c80 -4
c81 -8
c82 0
c83 0
c84 -12
c85 0
c86 0
c87 0
c88 0
c89 0
c9 0
c90 0
c91 0
c92 0
c93 -7
c94 -7
c95 0
c96 0
c97 0
c98 0
c99 0

# Dual solution values
Infeasible
# Columns 142
x00000000_figure_width 0
x00000001_figure_height -10
x00000012_title_area_canvas_height 0
x00000020_top_decorations_area_canvas_height 0
x00000029_right_decorations_area_canvas_width 0
x00000036_bottom_decorations_area_canvas_height 0
x00000045_left_decorations_area_canvas_width 0
x00000050_x_axis_size 0
x00000051_x_axis_margin_start 0
x00000052_x_axis_margin_end 0
x00000055_y_axis_size 0
x00000056_y_axis_margin_start 0
x00000057_y_axis_margin_end 0
x00000060_x2_axis_size 0
x00000061_x2_axis_margin_start 0
x00000062_x2_axis_margin_end 0
x00000065_y2_axis_size 0
x00000066_y2_axis_margin_start 0
x00000067_y2_axis_margin_end 0
x00000088_left_axis_canvas_canvas_width 0
x00000089_labels_left_bound 0
x00000092_top_axis_canvas_canvas_height 0
x00000094_tick_label_baseline 0
x00000095_tick_label_bottom 0
x00000099_right_axis_canvas_canvas_width -10
x00000100_labels_right_bound 0
x00000103_bottom_axis_canvas_canvas_height 0
x00000105_tick_label_baseline 0
x00000106_tick_label_bottom 0
x00000002_plot_bounds_top 0
x00000007_plot_area_canvas_y 0
x00000004_plot_bounds_left 0
x00000006_plot_area_canvas_x 0
x00000015_data_area_canvas_y 0
x00000016_data_area_canvas_height 0
x00000043_left_decorations_area_canvas_y 0
x00000044_left_decorations_area_canvas_height 0
x00000027_right_decorations_area_canvas_y 0
x00000097_right_axis_canvas_canvas_y 0
x00000026_right_decorations_area_canvas_x 0
x00000068_y2_axis_x 0
x00000069_y2_axis_y 0
x00000028_right_decorations_area_canvas_height 0
x00000096_right_axis_canvas_canvas_x 0
x00000034_bottom_decorations_area_canvas_x 0
x00000101_bottom_axis_canvas_canvas_x 0
x00000035_bottom_decorations_area_canvas_y 0
x00000102_bottom_axis_canvas_canvas_y 0
x00000037_bottom_decorations_area_canvas_width 0
x00000104_bottom_axis_canvas_canvas_width 0
x00000053_x_axis_x 0
x00000054_x_axis_y 0
x00000107_text_x 0
x00000110_text_width 0
x00000042_left_decorations_area_canvas_x 0
x00000108_text_y 0
x00000109_text_height 0
x00000039_bottom_left_decorations_area_canvas_y 0
x00000111_text_depth -30
x00000112_text_x 0
x00000115_text_width 0
x00000113_text_y 0
x00000114_text_height 0
x00000116_text_depth 0
x00000117_text_x 0
x00000120_text_width 0
x00000031_bottom_right_decorations_area_canvas_y 0
x00000118_text_y 0
x00000119_text_height 0
x00000121_text_depth 0
x00000122_text_x 0
x00000125_text_width 0
x00000123_text_y 0
x00000124_text_height 0
x00000126_text_depth 0
x00000127_text_x 0
x00000130_text_width 0
x00000040_bottom_left_decorations_area_canvas_height 0
x00000128_text_y 0
x00000129_text_height 0
x00000131_text_depth 0
x00000132_text_x 0
x00000135_text_width 0
x00000133_text_y 0
x00000134_text_height 0
x00000032_bottom_right_decorations_area_canvas_height 0
x00000136_text_depth 0
x00000137_text_x 0
x00000140_text_width 0
x00000138_text_y 0
x00000139_text_height 0
x00000141_text_depth 0
x00000075_text_x 0
x00000078_text_width 0
x00000076_text_y 0
x00000077_text_height 0
x00000010_title_area_canvas_x 0
x00000046_top_left_decorations_area_canvas_x 0
x00000079_text_depth -20
x00000073_plot_title_text_width 0
x00000072_plot_title_text_height 0
x00000083_text_width 0
x00000082_text_height 0
x00000038_bottom_left_decorations_area_canvas_x 0
x00000049_top_left_decorations_area_canvas_width 0
x00000005_plot_bounds_right 0
x00000009_plot_area_canvas_width 0
x00000041_bottom_left_decorations_area_canvas_width 0
x00000014_data_area_canvas_x 0
x00000018_top_decorations_area_canvas_x 0
x00000017_data_area_canvas_width 0
x00000021_top_decorations_area_canvas_width 0
x00000022_top_right_decorations_area_canvas_x 0
x00000030_bottom_right_decorations_area_canvas_x 0
x00000025_top_right_decorations_area_canvas_width 0
x00000033_bottom_right_decorations_area_canvas_width -20
x00000003_plot_bounds_bottom 0
x00000008_plot_area_canvas_height 0
x00000019_top_decorations_area_canvas_y 0
x00000047_top_left_decorations_area_canvas_y 0
x00000011_title_area_canvas_y 0
x00000048_top_left_decorations_area_canvas_height 0
x00000023_top_right_decorations_area_canvas_y 0
x00000024_top_right_decorations_area_canvas_height 0
x00000070_plot_title_text_x 0
x00000071_plot_title_text_y 0
x00000074_plot_title_text_depth -30
x00000085_left_axis_canvas_canvas_x 0
x00000086_left_axis_canvas_canvas_y 0
x00000087_left_axis_canvas_canvas_height 0
x00000058_y_axis_x 0
x00000059_y_axis_y 0
x00000080_text_x 0
x00000081_text_y 0
x00000084_text_depth 0
x00000093_top_axis_canvas_canvas_width 0
x00000090_top_axis_canvas_canvas_x 0
x00000091_top_axis_canvas_canvas_y 0
x00000063_x2_axis_x 0
x00000064_x2_axis_y 0
x00000098_right_axis_canvas_canvas_height 0
x00000013_title_area_canvas_width 0
# Rows 184
c0 -20
c1 -10
c10 10
c100 0
c101 0
c102 0
c103 10
c104 -10
c105 0
c106 0
c107 0
c108 -10
c109 0
c11 0
c110 0
c111 0
c112 10
c113 0
c114 0
c115 0
c116 0
c117 0
c118 -30
c119 0
c12 0
c120 -30
c121 0
c122 0
c123 0
c124 0
c125 0
c126 0
c127 0
c128 0
c129 0
c13 -10
c130 40
c131 -40
c132 0
c133 0
c134 0
c135 0
c136 0
c137 0
c138 0
c139 0
c14 0
c140 0
c141 0
c142 0
c143 0
c144 0
c145 0
c146 0
c147 0
c148 0
c149 0
c15 0
c150 0
c151 0
c152 0
c153 0
c154 0
c155 0
c156 0
c157 0
c158 0
c159 -20
c16 0
c160 0
c161 20
c162 0
c163 10
c164 0
c165 -30
c166 0
c167 -20
c168 -30
c169 0
c17 0
c170 0
c171 0
c172 0
c173 0
c174 0
c175 -40
c176 0
c177 0
c178 0
c179 0
c18 0
c180 0
c181 0
c182 0
c183 0
c19 0
c2 10
c20 10
c21 -10
c22 0
c23 10
c24 10
c25 0
c26 0
c27 0
c28 -20
c29 0
c3 0
c30 0
c31 0
c32 0
c33 0
c34 -10
c35 0
c36 0
c37 10
c38 20
c39 0
c4 0
c40 0
c41 0
c42 0
c43 0
c44 0
c45 0
c46 20
c47 20
c48 10
c49 0
c5 0
c50 0
c51 0
c52 0
c53 10
c54 -20
c55 0
c56 0
c57 10
c58 -30
c59 -30
c6 0
c60 -30
c61 -30
c62 -30
c63 -30
c64 -30
c65 -30
c66 -20
c67 0
c68 -10
c69 10
c7 0
c70 0
c71 30
c72 -30
c73 0
c74 -10
c75 0
c76 10
c77 0
c78 0
c79 10
c8 -10
c80 40
c81 30
c82 0
c83 -30
c84 0
c85 0
c86 -20
c87 0
c88 0
c89 -10
c9 10
c90 0
c91 0
c92 10
c93 -10
c94 50
c95 -40
c96 -30
c97 0
c98 0
c99 0

# Basis
HiGHS v1
Valid
# Columns 142
0 0 1 1 1 1 1 1 1 1 1 1 1 1 1 1 1 1 1 1 1 1 1 1 0 1 1 1 1 1 1 1 1 1 1 1 1 1 1 1 1 1 1 1 1 1 1 1 1 1 1 1 1 1 1 1 1 1 0 1 1 1 1 0 1 1 1 1 1 0 1 1 1 1 0 1 1 1 1 1 0 1 1 1 1 1 0 1 1 1 1 1 1 1 1 1 1 1 0 1 1 1 1 1 1 1 1 1 1 1 1 1 1 1 1 0 1 1 1 1 1 1 1 1 1 1 0 1 1 1 1 1 1 1 0 1 1 1 1 1 1 0 
# Rows 184
0 0 2 0 0 0 2 0 1 1 0 0 0 1 0 0 2 1 1 0 1 1 0 0 0 0 0 1 1 0 1 1 0 1 1 0 2 0 1 0 1 1 0 1 1 0 0 1 1 0 0 1 0 1 1 0 1 0 1 0 1 1 1 0 0 1 0 0 0 1 2 1 2 0 0 0 0 0 0 1 0 1 0 0 0 0 0 0 0 1 0 0 0 0 0 1 2 2 0 0 2 2 0 1 0 0 0 0 1 0 1 1 0 0 1 2 2 1 1 1 0 1 1 1 1 2 2 2 1 1 1 0 1 2 0 1 0 2 0 0 0 0 0 0 0 0 0 0 0 0 2 0 0 2 0 1 0 0 2 0 0 2 0 2 2 0 0 1 1 0 0 0 0 2 0 0 2 2 2 0 0 1 0 0 
